8500.0
1 0 0 1 0 0 1 0 0 0 1 0 1 1 0 1 0 1 0 1 
0 26 33 41 43 


15 28 34 36 44 


13 19 24 40 49 



2 3 17 35 47 

1 5 8 20 46 
7 14 30 32 39 45 

10 16 21 22 31 42 

6 9 18 25 27 29 

4 11 12 23 37 38 48 
